(set-logic HORN)
(set-info :source |
    Benchmark: C_VC
    Output by Princess (http://www.philipp.ruemmer.org/princess.shtml)
|)
(set-info :status unsat)
(declare-fun A0 (Int Int Int Int Int Int) Bool)
(declare-fun A1 (Int Int Int Int Int Int Int) Bool)
(declare-fun A2 (Int Int Int Int Int Int) Bool)
(declare-fun A3 (Int Int Int Int Int Int) Bool)
(declare-fun A4 (Int Int Int Int Int Int) Bool)
(declare-fun A_post (Int Int Int Int Int) Bool)
(declare-fun A_pre (Int Int Int) Bool)
(declare-fun inv_main2 (Int) Bool)
(declare-fun inv_main5 (Int Int Int) Bool)
(declare-fun inv_main6 (Int Int Int) Bool)
(declare-fun inv_main8 (Int Int Int) Bool)
(assert (inv_main2 0))
(assert (forall ((var0 Int) (var1 Int) (var2 Int) (var3 Int) (var4 Int)) (or (not (and (and (inv_main6 var4 var3 var2) (A_post var4 var3 var2 var1 var0)) (not (= var3 0)))) (inv_main8 var1 var3 var2))))
(assert (forall ((var0 Int) (var1 Int)) (or (not (inv_main2 var1)) (and (or (not (= var0 0)) (inv_main5 var1 var0 1)) (or (not (not (= var0 0))) (inv_main5 var1 var0 0))))))
(assert (forall ((var0 Int) (var1 Int) (var2 Int) (var3 Int) (var4 Int)) (or (not (and (inv_main5 var4 var3 var2) (A_post var4 var3 var2 var1 var0))) (inv_main6 var1 var3 var2))))
(assert (forall ((var0 Int) (var1 Int) (var2 Int)) (or (not (inv_main5 var2 var1 var0)) (A_pre var2 var1 var0))))
(assert (forall ((var0 Int) (var1 Int) (var2 Int)) (or (not (inv_main6 var2 var1 var0)) (A_pre var2 var1 var0))))
(assert (forall ((var0 Int) (var1 Int) (var2 Int)) (not (inv_main8 var2 var1 var0))))
(assert (forall ((var0 Int) (var1 Int) (var2 Int)) (or (not (A_pre var2 var1 var0)) (A0 var2 var1 var0 var2 var1 var0))))
(assert (forall ((var0 Int) (var1 Int) (var2 Int) (var3 Int) (var4 Int) (var5 Int)) (or (not (and (A0 var5 var4 var3 var2 var1 var0) (not (= var4 0)))) (A3 var5 var4 var3 var2 var1 var0))))
(assert (forall ((var0 Int) (var1 Int) (var2 Int) (var3 Int) (var4 Int) (var5 Int)) (or (not (and (A0 var5 var4 var3 var2 var1 var0) (= var4 0))) (A4 var5 var4 var3 var2 var1 var0))))
(assert (forall ((var0 Int) (var1 Int) (var2 Int) (var3 Int) (var4 Int) (var5 Int) (var6 Int) (var7 Int)) (or (not (and (A3 var7 var6 var5 var4 var3 var2) (A_post var7 var5 var6 var1 var0))) (A2 var1 var6 var5 var4 var3 var2))))
(assert (forall ((var0 Int) (var1 Int) (var2 Int) (var3 Int) (var4 Int) (var5 Int)) (or (not (A4 var5 var4 var3 var2 var1 var0)) (A2 var3 var4 var3 var2 var1 var0))))
(assert (forall ((var0 Int) (var1 Int) (var2 Int) (var3 Int) (var4 Int) (var5 Int) (var6 Int)) (or (not (A1 var6 var5 var4 var3 var2 var1 var0)) (A_post var3 var2 var1 var6 var0))))
(assert (forall ((var0 Int) (var1 Int) (var2 Int) (var3 Int) (var4 Int) (var5 Int)) (or (not (A3 var5 var4 var3 var2 var1 var0)) (A_pre var5 var3 var4))))
(check-sat)
